/*********************************************
 * OPL 12.6.0.0 Data
 * Author: Adrian Rodriguez Bazaga, Pau Rodriguez Esmerats
 * Creation Date: 06/12/2017 at 23:03:01
 *********************************************/

nNurses=203;
maxConsec=2;
maxPresence=7;
maxHours=5;
minHours=1;
hours=24;
demand= [34 32 55 49 32 55 49 32 34 16 2 3 4 4 6 4 6 3 4 1 30 54 26 49  ];
